************************************************************************
file with basedata            : md367_.bas
initial value random generator: 1070513460
************************************************************************
projects                      :  1
jobs (incl. supersource/sink ):  22
horizon                       :  159
RESOURCES
  - renewable                 :  2   R
  - nonrenewable              :  2   N
  - doubly constrained        :  0   D
************************************************************************
PROJECT INFORMATION:
pronr.  #jobs rel.date duedate tardcost  MPM-Time
    1     20      0       20       17       20
************************************************************************
PRECEDENCE RELATIONS:
jobnr.    #modes  #successors   successors
   1        1          3           2   3   4
   2        3          3           5   7  12
   3        3          1           8
   4        3          3           9  13  17
   5        3          3           6  14  16
   6        3          3           9  11  18
   7        3          2           9  13
   8        3          3          10  12  13
   9        3          3          10  15  20
  10        3          1          21
  11        3          1          19
  12        3          2          19  21
  13        3          1          21
  14        3          3          15  17  18
  15        3          1          19
  16        3          2          17  18
  17        3          1          20
  18        3          1          20
  19        3          1          22
  20        3          1          22
  21        3          1          22
  22        1          0        
************************************************************************
REQUESTS/DURATIONS:
jobnr. mode duration  R 1  R 2  N 1  N 2
------------------------------------------------------------------------
  1      1     0       0    0    0    0
  2      1     1       9    5    6    7
         2     8       7    5    5    6
         3    10       7    4    4    6
  3      1     7       6    2    7    5
         2     7       5    3    7    6
         3     9       4    1    4    4
  4      1     4      10   10    7    6
         2     8       5    9    4    6
         3    10       4    9    2    3
  5      1     1      10    4    3    4
         2     6       9    3    3    3
         3    10       8    3    3    3
  6      1     3       9    7   10    2
         2     7       8    7   10    2
         3     9       7    6    9    2
  7      1     4       3    5    7    9
         2     9       2    5    3    2
         3     9       1    5    5    3
  8      1     4       9    4    4    6
         2     7       5    4    2    3
         3     8       2    3    2    1
  9      1     2       8   10    7    5
         2     3       7    7    6    5
         3     5       7    7    3    5
 10      1     2       4    7    8    9
         2     5       4    7    8    7
         3     6       1    6    7    5
 11      1     1       9    4    6   10
         2     6       6    4    6    7
         3     8       4    4    5    6
 12      1     1       9    6    7    5
         2     3       4    3    4    5
         3     9       3    3    4    5
 13      1     7       8    5    5    9
         2     8       7    5    3    9
         3     8       7    4    4    9
 14      1     1       7    5    7    7
         2     3       4    3    3    4
         3     3       5    4    3    3
 15      1     8       8    6    6    5
         2     9       5    6    6    5
         3    10       3    6    6    5
 16      1     2       8    8    9    6
         2     3       8    6    7    6
         3     7       7    6    6    5
 17      1     3       2    9    9    8
         2     5       1    6    9    8
         3     7       1    2    8    7
 18      1     1       9    5    6    8
         2     7       6    4    3    3
         3     8       5    1    3    3
 19      1     1       5    5    7    5
         2     2       5    5    6    4
         3     7       4    4    5    1
 20      1     3       7    8    8    9
         2     4       6    4    7    8
         3    10       2    2    3    5
 21      1     2       1    4   10    7
         2     6       1    2    8    4
         3     6       1    3    6    5
 22      1     0       0    0    0    0
************************************************************************
RESOURCEAVAILABILITIES:
  R 1  R 2  N 1  N 2
   34   31  114  109
************************************************************************
MAXIMAL LAGS:
from  to  type  delay
    1   12   ES      0
    1    2   ES      0
    2   12   ES      0
    1    3   ES      0
    3   12   ES      0
    1    4   ES      0
    4   12   ES      0
    1    5   ES      0
    5   12   ES      0
    1    6   ES      0
    6   12   ES      0
    1    7   ES      0
    7   12   ES      0
    1    8   ES      0
    8   12   ES      0
    1    9   ES      0
    9   12   ES      0
    1   10   ES      0
   10   12   ES      0
    1   11   ES      0
   11   12   ES      0
    1   12   ES      0
    2    5   SS     -8
    2    5   SE      1
    2    5   ES      5
    2    5   EE     10
    2    7   SS    -12
    2    7   SE    -12
    2    7   ES      7
    2    7   EE    -11
    3    8   SS      3
    3    8   SE     -8
    3    8   ES     -7
    3    8   EE    -12
    4    9   SS      5
    4    9   SE      8
    4    9   ES      8
    4    9   EE      3
    4   13   SS    -10
    4   13   SE     -7
    4   13   ES     12
    4   13   EE     -9
    4   17   SS      4
    4   17   SE      6
    4   17   ES     12
    4   17   EE     -4
    5    6   SS     -1
    5    6   SE     -7
    5    6   ES     -5
    5    6   EE      7
    5   14   SS      8
    5   14   SE     10
    5   14   ES     -2
    5   14   EE      6
    5   16   SS      1
    5   16   SE     12
    5   16   ES    -11
    5   16   EE     -8
    6    9   SS     -5
    6    9   SE     -6
    6    9   ES    -10
    6    9   EE     -2
    6   11   SS      7
    6   11   SE     12
    6   11   ES      7
    6   11   EE      4
    6   18   SS     11
    6   18   SE      2
    6   18   ES     -1
    6   18   EE     -9
    7    9   SS      2
    7    9   SE     -1
    7    9   ES      2
    7    9   EE      7
    7   13   SS    -12
    7   13   SE     -6
    7   13   ES     -7
    7   13   EE     -6
    8   10   SS    -12
    8   10   SE      5
    8   10   ES      4
    8   10   EE      5
    8   13   SS    -11
    8   13   SE      1
    8   13   ES    -12
    8   13   EE      7
    9   10   SS     -3
    9   10   SE    -10
    9   10   ES      2
    9   10   EE     -2
    9   15   SS    -12
    9   15   SE     -7
    9   15   ES     11
    9   15   EE     -4
    9   20   SS     -9
    9   20   SE     -5
    9   20   ES    -12
    9   20   EE    -11
   10   21   SS      2
   10   21   SE      4
   10   21   ES      8
   10   21   EE      5
   11   19   SS      1
   11   19   SE      3
   11   19   ES      8
   11   19   EE     -1
   12   19   SS      4
   12   19   SE     10
   12   19   ES      3
   12   19   EE     -2
   12   21   SS     -2
   12   21   SE      9
   12   21   ES      5
   12   21   EE     -2
   13   21   SS    -12
   13   21   SE      6
   13   21   ES     -2
   13   21   EE      6
   14   15   SS     12
   14   15   SE     -9
   14   15   ES     -3
   14   15   EE     -2
   14   17   SS    -11
   14   17   SE     -3
   14   17   ES      7
   14   17   EE      2
   14   18   SS     -7
   14   18   SE     -5
   18   14   SE      0
   14   18   ES      0
   14   18   EE      1
   15   19   SS      7
   15   19   SE     -3
   15   19   ES      9
   15   19   EE      0
   16   17   SS     -8
   16   17   SE      2
   16   17   ES     -7
   16   17   EE      4
   16   18   SS      1
   16   18   SE     -2
   16   18   ES     -9
   16   18   EE      5
   17   20   SS     -9
   17   20   SE     -3
   17   20   ES     12
   17   20   EE     10
   18   20   SS     -8
   18   20   SE    -11
   18   20   ES     -3
   18   20   EE     -5
   19   22   SS      8
   19   22   SE      5
   19   22   ES     -4
   19   22   EE     12
   20   22   SS      9
   20   22   SE     -2
   20   22   ES    -11
   20   22   EE      9
   21   22   SS     10
   21   22   SE     -4
   21   22   ES      0
   21   22   EE     -8
************************************************************************
